SECTION Graph
Nodes 783
Edges 2262
E 1 15 1
E 1 16 1
E 1 17 1
E 1 18 1
E 1 19 1
E 1 20 1
E 1 21 1
E 1 22 1
E 1 23 1
E 1 24 1
E 1 25 1
E 1 26 1
E 1 27 1
E 2 15 1
E 2 27 1
E 3 15 1
E 3 16 1
E 4 16 1
E 4 17 1
E 5 17 1
E 5 18 1
E 6 18 1
E 6 19 1
E 7 19 1
E 7 20 1
E 8 20 1
E 8 21 1
E 9 21 1
E 9 22 1
E 10 22 1
E 10 23 1
E 11 23 1
E 11 24 1
E 12 24 1
E 12 25 1
E 13 25 1
E 13 26 1
E 14 26 1
E 14 27 1
E 28 15 1
E 28 16 1
E 28 17 1
E 28 18 1
E 28 19 1
E 28 20 1
E 28 21 1
E 28 22 1
E 28 23 1
E 28 24 1
E 28 25 1
E 28 26 1
E 28 27 1
E 29 15 1
E 29 27 1
E 30 15 1
E 30 16 1
E 31 16 1
E 31 17 1
E 32 17 1
E 32 18 1
E 33 18 1
E 33 19 1
E 34 19 1
E 34 20 1
E 35 20 1
E 35 21 1
E 36 21 1
E 36 22 1
E 37 22 1
E 37 23 1
E 38 23 1
E 38 24 1
E 39 24 1
E 39 25 1
E 40 25 1
E 40 26 1
E 41 26 1
E 41 27 1
E 28 42 1
E 28 43 1
E 28 44 1
E 28 45 1
E 28 46 1
E 28 47 1
E 28 48 1
E 28 49 1
E 28 50 1
E 28 51 1
E 28 52 1
E 28 53 1
E 28 54 1
E 29 42 1
E 29 54 1
E 30 42 1
E 30 43 1
E 31 43 1
E 31 44 1
E 32 44 1
E 32 45 1
E 33 45 1
E 33 46 1
E 34 46 1
E 34 47 1
E 35 47 1
E 35 48 1
E 36 48 1
E 36 49 1
E 37 49 1
E 37 50 1
E 38 50 1
E 38 51 1
E 39 51 1
E 39 52 1
E 40 52 1
E 40 53 1
E 41 53 1
E 41 54 1
E 55 42 1
E 55 43 1
E 55 44 1
E 55 45 1
E 55 46 1
E 55 47 1
E 55 48 1
E 55 49 1
E 55 50 1
E 55 51 1
E 55 52 1
E 55 53 1
E 55 54 1
E 56 42 1
E 56 54 1
E 57 42 1
E 57 43 1
E 58 43 1
E 58 44 1
E 59 44 1
E 59 45 1
E 60 45 1
E 60 46 1
E 61 46 1
E 61 47 1
E 62 47 1
E 62 48 1
E 63 48 1
E 63 49 1
E 64 49 1
E 64 50 1
E 65 50 1
E 65 51 1
E 66 51 1
E 66 52 1
E 67 52 1
E 67 53 1
E 68 53 1
E 68 54 1
E 55 69 1
E 55 70 1
E 55 71 1
E 55 72 1
E 55 73 1
E 55 74 1
E 55 75 1
E 55 76 1
E 55 77 1
E 55 78 1
E 55 79 1
E 55 80 1
E 55 81 1
E 56 69 1
E 56 81 1
E 57 69 1
E 57 70 1
E 58 70 1
E 58 71 1
E 59 71 1
E 59 72 1
E 60 72 1
E 60 73 1
E 61 73 1
E 61 74 1
E 62 74 1
E 62 75 1
E 63 75 1
E 63 76 1
E 64 76 1
E 64 77 1
E 65 77 1
E 65 78 1
E 66 78 1
E 66 79 1
E 67 79 1
E 67 80 1
E 68 80 1
E 68 81 1
E 82 69 1
E 82 70 1
E 82 71 1
E 82 72 1
E 82 73 1
E 82 74 1
E 82 75 1
E 82 76 1
E 82 77 1
E 82 78 1
E 82 79 1
E 82 80 1
E 82 81 1
E 83 69 1
E 83 81 1
E 84 69 1
E 84 70 1
E 85 70 1
E 85 71 1
E 86 71 1
E 86 72 1
E 87 72 1
E 87 73 1
E 88 73 1
E 88 74 1
E 89 74 1
E 89 75 1
E 90 75 1
E 90 76 1
E 91 76 1
E 91 77 1
E 92 77 1
E 92 78 1
E 93 78 1
E 93 79 1
E 94 79 1
E 94 80 1
E 95 80 1
E 95 81 1
E 82 96 1
E 82 97 1
E 82 98 1
E 82 99 1
E 82 100 1
E 82 101 1
E 82 102 1
E 82 103 1
E 82 104 1
E 82 105 1
E 82 106 1
E 82 107 1
E 82 108 1
E 83 96 1
E 83 108 1
E 84 96 1
E 84 97 1
E 85 97 1
E 85 98 1
E 86 98 1
E 86 99 1
E 87 99 1
E 87 100 1
E 88 100 1
E 88 101 1
E 89 101 1
E 89 102 1
E 90 102 1
E 90 103 1
E 91 103 1
E 91 104 1
E 92 104 1
E 92 105 1
E 93 105 1
E 93 106 1
E 94 106 1
E 94 107 1
E 95 107 1
E 95 108 1
E 109 96 1
E 109 97 1
E 109 98 1
E 109 99 1
E 109 100 1
E 109 101 1
E 109 102 1
E 109 103 1
E 109 104 1
E 109 105 1
E 109 106 1
E 109 107 1
E 109 108 1
E 110 96 1
E 110 108 1
E 111 96 1
E 111 97 1
E 112 97 1
E 112 98 1
E 113 98 1
E 113 99 1
E 114 99 1
E 114 100 1
E 115 100 1
E 115 101 1
E 116 101 1
E 116 102 1
E 117 102 1
E 117 103 1
E 118 103 1
E 118 104 1
E 119 104 1
E 119 105 1
E 120 105 1
E 120 106 1
E 121 106 1
E 121 107 1
E 122 107 1
E 122 108 1
E 109 123 1
E 109 124 1
E 109 125 1
E 109 126 1
E 109 127 1
E 109 128 1
E 109 129 1
E 109 130 1
E 109 131 1
E 109 132 1
E 109 133 1
E 109 134 1
E 109 135 1
E 110 123 1
E 110 135 1
E 111 123 1
E 111 124 1
E 112 124 1
E 112 125 1
E 113 125 1
E 113 126 1
E 114 126 1
E 114 127 1
E 115 127 1
E 115 128 1
E 116 128 1
E 116 129 1
E 117 129 1
E 117 130 1
E 118 130 1
E 118 131 1
E 119 131 1
E 119 132 1
E 120 132 1
E 120 133 1
E 121 133 1
E 121 134 1
E 122 134 1
E 122 135 1
E 136 123 1
E 136 124 1
E 136 125 1
E 136 126 1
E 136 127 1
E 136 128 1
E 136 129 1
E 136 130 1
E 136 131 1
E 136 132 1
E 136 133 1
E 136 134 1
E 136 135 1
E 137 123 1
E 137 135 1
E 138 123 1
E 138 124 1
E 139 124 1
E 139 125 1
E 140 125 1
E 140 126 1
E 141 126 1
E 141 127 1
E 142 127 1
E 142 128 1
E 143 128 1
E 143 129 1
E 144 129 1
E 144 130 1
E 145 130 1
E 145 131 1
E 146 131 1
E 146 132 1
E 147 132 1
E 147 133 1
E 148 133 1
E 148 134 1
E 149 134 1
E 149 135 1
E 136 150 1
E 136 151 1
E 136 152 1
E 136 153 1
E 136 154 1
E 136 155 1
E 136 156 1
E 136 157 1
E 136 158 1
E 136 159 1
E 136 160 1
E 136 161 1
E 136 162 1
E 137 150 1
E 137 162 1
E 138 150 1
E 138 151 1
E 139 151 1
E 139 152 1
E 140 152 1
E 140 153 1
E 141 153 1
E 141 154 1
E 142 154 1
E 142 155 1
E 143 155 1
E 143 156 1
E 144 156 1
E 144 157 1
E 145 157 1
E 145 158 1
E 146 158 1
E 146 159 1
E 147 159 1
E 147 160 1
E 148 160 1
E 148 161 1
E 149 161 1
E 149 162 1
E 163 150 1
E 163 151 1
E 163 152 1
E 163 153 1
E 163 154 1
E 163 155 1
E 163 156 1
E 163 157 1
E 163 158 1
E 163 159 1
E 163 160 1
E 163 161 1
E 163 162 1
E 164 150 1
E 164 162 1
E 165 150 1
E 165 151 1
E 166 151 1
E 166 152 1
E 167 152 1
E 167 153 1
E 168 153 1
E 168 154 1
E 169 154 1
E 169 155 1
E 170 155 1
E 170 156 1
E 171 156 1
E 171 157 1
E 172 157 1
E 172 158 1
E 173 158 1
E 173 159 1
E 174 159 1
E 174 160 1
E 175 160 1
E 175 161 1
E 176 161 1
E 176 162 1
E 163 177 1
E 163 178 1
E 163 179 1
E 163 180 1
E 163 181 1
E 163 182 1
E 163 183 1
E 163 184 1
E 163 185 1
E 163 186 1
E 163 187 1
E 163 188 1
E 163 189 1
E 164 177 1
E 164 189 1
E 165 177 1
E 165 178 1
E 166 178 1
E 166 179 1
E 167 179 1
E 167 180 1
E 168 180 1
E 168 181 1
E 169 181 1
E 169 182 1
E 170 182 1
E 170 183 1
E 171 183 1
E 171 184 1
E 172 184 1
E 172 185 1
E 173 185 1
E 173 186 1
E 174 186 1
E 174 187 1
E 175 187 1
E 175 188 1
E 176 188 1
E 176 189 1
E 190 177 1
E 190 178 1
E 190 179 1
E 190 180 1
E 190 181 1
E 190 182 1
E 190 183 1
E 190 184 1
E 190 185 1
E 190 186 1
E 190 187 1
E 190 188 1
E 190 189 1
E 191 177 1
E 191 189 1
E 192 177 1
E 192 178 1
E 193 178 1
E 193 179 1
E 194 179 1
E 194 180 1
E 195 180 1
E 195 181 1
E 196 181 1
E 196 182 1
E 197 182 1
E 197 183 1
E 198 183 1
E 198 184 1
E 199 184 1
E 199 185 1
E 200 185 1
E 200 186 1
E 201 186 1
E 201 187 1
E 202 187 1
E 202 188 1
E 203 188 1
E 203 189 1
E 190 204 1
E 190 205 1
E 190 206 1
E 190 207 1
E 190 208 1
E 190 209 1
E 190 210 1
E 190 211 1
E 190 212 1
E 190 213 1
E 190 214 1
E 190 215 1
E 190 216 1
E 191 204 1
E 191 216 1
E 192 204 1
E 192 205 1
E 193 205 1
E 193 206 1
E 194 206 1
E 194 207 1
E 195 207 1
E 195 208 1
E 196 208 1
E 196 209 1
E 197 209 1
E 197 210 1
E 198 210 1
E 198 211 1
E 199 211 1
E 199 212 1
E 200 212 1
E 200 213 1
E 201 213 1
E 201 214 1
E 202 214 1
E 202 215 1
E 203 215 1
E 203 216 1
E 217 204 1
E 217 205 1
E 217 206 1
E 217 207 1
E 217 208 1
E 217 209 1
E 217 210 1
E 217 211 1
E 217 212 1
E 217 213 1
E 217 214 1
E 217 215 1
E 217 216 1
E 218 204 1
E 218 216 1
E 219 204 1
E 219 205 1
E 220 205 1
E 220 206 1
E 221 206 1
E 221 207 1
E 222 207 1
E 222 208 1
E 223 208 1
E 223 209 1
E 224 209 1
E 224 210 1
E 225 210 1
E 225 211 1
E 226 211 1
E 226 212 1
E 227 212 1
E 227 213 1
E 228 213 1
E 228 214 1
E 229 214 1
E 229 215 1
E 230 215 1
E 230 216 1
E 217 231 1
E 217 232 1
E 217 233 1
E 217 234 1
E 217 235 1
E 217 236 1
E 217 237 1
E 217 238 1
E 217 239 1
E 217 240 1
E 217 241 1
E 217 242 1
E 217 243 1
E 218 231 1
E 218 243 1
E 219 231 1
E 219 232 1
E 220 232 1
E 220 233 1
E 221 233 1
E 221 234 1
E 222 234 1
E 222 235 1
E 223 235 1
E 223 236 1
E 224 236 1
E 224 237 1
E 225 237 1
E 225 238 1
E 226 238 1
E 226 239 1
E 227 239 1
E 227 240 1
E 228 240 1
E 228 241 1
E 229 241 1
E 229 242 1
E 230 242 1
E 230 243 1
E 244 231 1
E 244 232 1
E 244 233 1
E 244 234 1
E 244 235 1
E 244 236 1
E 244 237 1
E 244 238 1
E 244 239 1
E 244 240 1
E 244 241 1
E 244 242 1
E 244 243 1
E 245 231 1
E 245 243 1
E 246 231 1
E 246 232 1
E 247 232 1
E 247 233 1
E 248 233 1
E 248 234 1
E 249 234 1
E 249 235 1
E 250 235 1
E 250 236 1
E 251 236 1
E 251 237 1
E 252 237 1
E 252 238 1
E 253 238 1
E 253 239 1
E 254 239 1
E 254 240 1
E 255 240 1
E 255 241 1
E 256 241 1
E 256 242 1
E 257 242 1
E 257 243 1
E 244 258 1
E 244 259 1
E 244 260 1
E 244 261 1
E 244 262 1
E 244 263 1
E 244 264 1
E 244 265 1
E 244 266 1
E 244 267 1
E 244 268 1
E 244 269 1
E 244 270 1
E 245 258 1
E 245 270 1
E 246 258 1
E 246 259 1
E 247 259 1
E 247 260 1
E 248 260 1
E 248 261 1
E 249 261 1
E 249 262 1
E 250 262 1
E 250 263 1
E 251 263 1
E 251 264 1
E 252 264 1
E 252 265 1
E 253 265 1
E 253 266 1
E 254 266 1
E 254 267 1
E 255 267 1
E 255 268 1
E 256 268 1
E 256 269 1
E 257 269 1
E 257 270 1
E 271 258 1
E 271 259 1
E 271 260 1
E 271 261 1
E 271 262 1
E 271 263 1
E 271 264 1
E 271 265 1
E 271 266 1
E 271 267 1
E 271 268 1
E 271 269 1
E 271 270 1
E 272 258 1
E 272 270 1
E 273 258 1
E 273 259 1
E 274 259 1
E 274 260 1
E 275 260 1
E 275 261 1
E 276 261 1
E 276 262 1
E 277 262 1
E 277 263 1
E 278 263 1
E 278 264 1
E 279 264 1
E 279 265 1
E 280 265 1
E 280 266 1
E 281 266 1
E 281 267 1
E 282 267 1
E 282 268 1
E 283 268 1
E 283 269 1
E 284 269 1
E 284 270 1
E 271 285 1
E 271 286 1
E 271 287 1
E 271 288 1
E 271 289 1
E 271 290 1
E 271 291 1
E 271 292 1
E 271 293 1
E 271 294 1
E 271 295 1
E 271 296 1
E 271 297 1
E 272 285 1
E 272 297 1
E 273 285 1
E 273 286 1
E 274 286 1
E 274 287 1
E 275 287 1
E 275 288 1
E 276 288 1
E 276 289 1
E 277 289 1
E 277 290 1
E 278 290 1
E 278 291 1
E 279 291 1
E 279 292 1
E 280 292 1
E 280 293 1
E 281 293 1
E 281 294 1
E 282 294 1
E 282 295 1
E 283 295 1
E 283 296 1
E 284 296 1
E 284 297 1
E 298 285 1
E 298 286 1
E 298 287 1
E 298 288 1
E 298 289 1
E 298 290 1
E 298 291 1
E 298 292 1
E 298 293 1
E 298 294 1
E 298 295 1
E 298 296 1
E 298 297 1
E 299 285 1
E 299 297 1
E 300 285 1
E 300 286 1
E 301 286 1
E 301 287 1
E 302 287 1
E 302 288 1
E 303 288 1
E 303 289 1
E 304 289 1
E 304 290 1
E 305 290 1
E 305 291 1
E 306 291 1
E 306 292 1
E 307 292 1
E 307 293 1
E 308 293 1
E 308 294 1
E 309 294 1
E 309 295 1
E 310 295 1
E 310 296 1
E 311 296 1
E 311 297 1
E 298 312 1
E 298 313 1
E 298 314 1
E 298 315 1
E 298 316 1
E 298 317 1
E 298 318 1
E 298 319 1
E 298 320 1
E 298 321 1
E 298 322 1
E 298 323 1
E 298 324 1
E 299 312 1
E 299 324 1
E 300 312 1
E 300 313 1
E 301 313 1
E 301 314 1
E 302 314 1
E 302 315 1
E 303 315 1
E 303 316 1
E 304 316 1
E 304 317 1
E 305 317 1
E 305 318 1
E 306 318 1
E 306 319 1
E 307 319 1
E 307 320 1
E 308 320 1
E 308 321 1
E 309 321 1
E 309 322 1
E 310 322 1
E 310 323 1
E 311 323 1
E 311 324 1
E 325 312 1
E 325 313 1
E 325 314 1
E 325 315 1
E 325 316 1
E 325 317 1
E 325 318 1
E 325 319 1
E 325 320 1
E 325 321 1
E 325 322 1
E 325 323 1
E 325 324 1
E 326 312 1
E 326 324 1
E 327 312 1
E 327 313 1
E 328 313 1
E 328 314 1
E 329 314 1
E 329 315 1
E 330 315 1
E 330 316 1
E 331 316 1
E 331 317 1
E 332 317 1
E 332 318 1
E 333 318 1
E 333 319 1
E 334 319 1
E 334 320 1
E 335 320 1
E 335 321 1
E 336 321 1
E 336 322 1
E 337 322 1
E 337 323 1
E 338 323 1
E 338 324 1
E 325 339 1
E 325 340 1
E 325 341 1
E 325 342 1
E 325 343 1
E 325 344 1
E 325 345 1
E 325 346 1
E 325 347 1
E 325 348 1
E 325 349 1
E 325 350 1
E 325 351 1
E 326 339 1
E 326 351 1
E 327 339 1
E 327 340 1
E 328 340 1
E 328 341 1
E 329 341 1
E 329 342 1
E 330 342 1
E 330 343 1
E 331 343 1
E 331 344 1
E 332 344 1
E 332 345 1
E 333 345 1
E 333 346 1
E 334 346 1
E 334 347 1
E 335 347 1
E 335 348 1
E 336 348 1
E 336 349 1
E 337 349 1
E 337 350 1
E 338 350 1
E 338 351 1
E 352 339 1
E 352 340 1
E 352 341 1
E 352 342 1
E 352 343 1
E 352 344 1
E 352 345 1
E 352 346 1
E 352 347 1
E 352 348 1
E 352 349 1
E 352 350 1
E 352 351 1
E 353 339 1
E 353 351 1
E 354 339 1
E 354 340 1
E 355 340 1
E 355 341 1
E 356 341 1
E 356 342 1
E 357 342 1
E 357 343 1
E 358 343 1
E 358 344 1
E 359 344 1
E 359 345 1
E 360 345 1
E 360 346 1
E 361 346 1
E 361 347 1
E 362 347 1
E 362 348 1
E 363 348 1
E 363 349 1
E 364 349 1
E 364 350 1
E 365 350 1
E 365 351 1
E 352 366 1
E 352 367 1
E 352 368 1
E 352 369 1
E 352 370 1
E 352 371 1
E 352 372 1
E 352 373 1
E 352 374 1
E 352 375 1
E 352 376 1
E 352 377 1
E 352 378 1
E 353 366 1
E 353 378 1
E 354 366 1
E 354 367 1
E 355 367 1
E 355 368 1
E 356 368 1
E 356 369 1
E 357 369 1
E 357 370 1
E 358 370 1
E 358 371 1
E 359 371 1
E 359 372 1
E 360 372 1
E 360 373 1
E 361 373 1
E 361 374 1
E 362 374 1
E 362 375 1
E 363 375 1
E 363 376 1
E 364 376 1
E 364 377 1
E 365 377 1
E 365 378 1
E 379 366 1
E 379 367 1
E 379 368 1
E 379 369 1
E 379 370 1
E 379 371 1
E 379 372 1
E 379 373 1
E 379 374 1
E 379 375 1
E 379 376 1
E 379 377 1
E 379 378 1
E 380 366 1
E 380 378 1
E 381 366 1
E 381 367 1
E 382 367 1
E 382 368 1
E 383 368 1
E 383 369 1
E 384 369 1
E 384 370 1
E 385 370 1
E 385 371 1
E 386 371 1
E 386 372 1
E 387 372 1
E 387 373 1
E 388 373 1
E 388 374 1
E 389 374 1
E 389 375 1
E 390 375 1
E 390 376 1
E 391 376 1
E 391 377 1
E 392 377 1
E 392 378 1
E 379 393 1
E 379 394 1
E 379 395 1
E 379 396 1
E 379 397 1
E 379 398 1
E 379 399 1
E 379 400 1
E 379 401 1
E 379 402 1
E 379 403 1
E 379 404 1
E 379 405 1
E 380 393 1
E 380 405 1
E 381 393 1
E 381 394 1
E 382 394 1
E 382 395 1
E 383 395 1
E 383 396 1
E 384 396 1
E 384 397 1
E 385 397 1
E 385 398 1
E 386 398 1
E 386 399 1
E 387 399 1
E 387 400 1
E 388 400 1
E 388 401 1
E 389 401 1
E 389 402 1
E 390 402 1
E 390 403 1
E 391 403 1
E 391 404 1
E 392 404 1
E 392 405 1
E 406 393 1
E 406 394 1
E 406 395 1
E 406 396 1
E 406 397 1
E 406 398 1
E 406 399 1
E 406 400 1
E 406 401 1
E 406 402 1
E 406 403 1
E 406 404 1
E 406 405 1
E 407 393 1
E 407 405 1
E 408 393 1
E 408 394 1
E 409 394 1
E 409 395 1
E 410 395 1
E 410 396 1
E 411 396 1
E 411 397 1
E 412 397 1
E 412 398 1
E 413 398 1
E 413 399 1
E 414 399 1
E 414 400 1
E 415 400 1
E 415 401 1
E 416 401 1
E 416 402 1
E 417 402 1
E 417 403 1
E 418 403 1
E 418 404 1
E 419 404 1
E 419 405 1
E 406 420 1
E 406 421 1
E 406 422 1
E 406 423 1
E 406 424 1
E 406 425 1
E 406 426 1
E 406 427 1
E 406 428 1
E 406 429 1
E 406 430 1
E 406 431 1
E 406 432 1
E 407 420 1
E 407 432 1
E 408 420 1
E 408 421 1
E 409 421 1
E 409 422 1
E 410 422 1
E 410 423 1
E 411 423 1
E 411 424 1
E 412 424 1
E 412 425 1
E 413 425 1
E 413 426 1
E 414 426 1
E 414 427 1
E 415 427 1
E 415 428 1
E 416 428 1
E 416 429 1
E 417 429 1
E 417 430 1
E 418 430 1
E 418 431 1
E 419 431 1
E 419 432 1
E 433 420 1
E 433 421 1
E 433 422 1
E 433 423 1
E 433 424 1
E 433 425 1
E 433 426 1
E 433 427 1
E 433 428 1
E 433 429 1
E 433 430 1
E 433 431 1
E 433 432 1
E 434 420 1
E 434 432 1
E 435 420 1
E 435 421 1
E 436 421 1
E 436 422 1
E 437 422 1
E 437 423 1
E 438 423 1
E 438 424 1
E 439 424 1
E 439 425 1
E 440 425 1
E 440 426 1
E 441 426 1
E 441 427 1
E 442 427 1
E 442 428 1
E 443 428 1
E 443 429 1
E 444 429 1
E 444 430 1
E 445 430 1
E 445 431 1
E 446 431 1
E 446 432 1
E 433 447 1
E 433 448 1
E 433 449 1
E 433 450 1
E 433 451 1
E 433 452 1
E 433 453 1
E 433 454 1
E 433 455 1
E 433 456 1
E 433 457 1
E 433 458 1
E 433 459 1
E 434 447 1
E 434 459 1
E 435 447 1
E 435 448 1
E 436 448 1
E 436 449 1
E 437 449 1
E 437 450 1
E 438 450 1
E 438 451 1
E 439 451 1
E 439 452 1
E 440 452 1
E 440 453 1
E 441 453 1
E 441 454 1
E 442 454 1
E 442 455 1
E 443 455 1
E 443 456 1
E 444 456 1
E 444 457 1
E 445 457 1
E 445 458 1
E 446 458 1
E 446 459 1
E 460 447 1
E 460 448 1
E 460 449 1
E 460 450 1
E 460 451 1
E 460 452 1
E 460 453 1
E 460 454 1
E 460 455 1
E 460 456 1
E 460 457 1
E 460 458 1
E 460 459 1
E 461 447 1
E 461 459 1
E 462 447 1
E 462 448 1
E 463 448 1
E 463 449 1
E 464 449 1
E 464 450 1
E 465 450 1
E 465 451 1
E 466 451 1
E 466 452 1
E 467 452 1
E 467 453 1
E 468 453 1
E 468 454 1
E 469 454 1
E 469 455 1
E 470 455 1
E 470 456 1
E 471 456 1
E 471 457 1
E 472 457 1
E 472 458 1
E 473 458 1
E 473 459 1
E 460 474 1
E 460 475 1
E 460 476 1
E 460 477 1
E 460 478 1
E 460 479 1
E 460 480 1
E 460 481 1
E 460 482 1
E 460 483 1
E 460 484 1
E 460 485 1
E 460 486 1
E 461 474 1
E 461 486 1
E 462 474 1
E 462 475 1
E 463 475 1
E 463 476 1
E 464 476 1
E 464 477 1
E 465 477 1
E 465 478 1
E 466 478 1
E 466 479 1
E 467 479 1
E 467 480 1
E 468 480 1
E 468 481 1
E 469 481 1
E 469 482 1
E 470 482 1
E 470 483 1
E 471 483 1
E 471 484 1
E 472 484 1
E 472 485 1
E 473 485 1
E 473 486 1
E 487 474 1
E 487 475 1
E 487 476 1
E 487 477 1
E 487 478 1
E 487 479 1
E 487 480 1
E 487 481 1
E 487 482 1
E 487 483 1
E 487 484 1
E 487 485 1
E 487 486 1
E 488 474 1
E 488 486 1
E 489 474 1
E 489 475 1
E 490 475 1
E 490 476 1
E 491 476 1
E 491 477 1
E 492 477 1
E 492 478 1
E 493 478 1
E 493 479 1
E 494 479 1
E 494 480 1
E 495 480 1
E 495 481 1
E 496 481 1
E 496 482 1
E 497 482 1
E 497 483 1
E 498 483 1
E 498 484 1
E 499 484 1
E 499 485 1
E 500 485 1
E 500 486 1
E 487 501 1
E 487 502 1
E 487 503 1
E 487 504 1
E 487 505 1
E 487 506 1
E 487 507 1
E 487 508 1
E 487 509 1
E 487 510 1
E 487 511 1
E 487 512 1
E 487 513 1
E 488 501 1
E 488 513 1
E 489 501 1
E 489 502 1
E 490 502 1
E 490 503 1
E 491 503 1
E 491 504 1
E 492 504 1
E 492 505 1
E 493 505 1
E 493 506 1
E 494 506 1
E 494 507 1
E 495 507 1
E 495 508 1
E 496 508 1
E 496 509 1
E 497 509 1
E 497 510 1
E 498 510 1
E 498 511 1
E 499 511 1
E 499 512 1
E 500 512 1
E 500 513 1
E 514 501 1
E 514 502 1
E 514 503 1
E 514 504 1
E 514 505 1
E 514 506 1
E 514 507 1
E 514 508 1
E 514 509 1
E 514 510 1
E 514 511 1
E 514 512 1
E 514 513 1
E 515 501 1
E 515 513 1
E 516 501 1
E 516 502 1
E 517 502 1
E 517 503 1
E 518 503 1
E 518 504 1
E 519 504 1
E 519 505 1
E 520 505 1
E 520 506 1
E 521 506 1
E 521 507 1
E 522 507 1
E 522 508 1
E 523 508 1
E 523 509 1
E 524 509 1
E 524 510 1
E 525 510 1
E 525 511 1
E 526 511 1
E 526 512 1
E 527 512 1
E 527 513 1
E 514 528 1
E 514 529 1
E 514 530 1
E 514 531 1
E 514 532 1
E 514 533 1
E 514 534 1
E 514 535 1
E 514 536 1
E 514 537 1
E 514 538 1
E 514 539 1
E 514 540 1
E 515 528 1
E 515 540 1
E 516 528 1
E 516 529 1
E 517 529 1
E 517 530 1
E 518 530 1
E 518 531 1
E 519 531 1
E 519 532 1
E 520 532 1
E 520 533 1
E 521 533 1
E 521 534 1
E 522 534 1
E 522 535 1
E 523 535 1
E 523 536 1
E 524 536 1
E 524 537 1
E 525 537 1
E 525 538 1
E 526 538 1
E 526 539 1
E 527 539 1
E 527 540 1
E 541 528 1
E 541 529 1
E 541 530 1
E 541 531 1
E 541 532 1
E 541 533 1
E 541 534 1
E 541 535 1
E 541 536 1
E 541 537 1
E 541 538 1
E 541 539 1
E 541 540 1
E 542 528 1
E 542 540 1
E 543 528 1
E 543 529 1
E 544 529 1
E 544 530 1
E 545 530 1
E 545 531 1
E 546 531 1
E 546 532 1
E 547 532 1
E 547 533 1
E 548 533 1
E 548 534 1
E 549 534 1
E 549 535 1
E 550 535 1
E 550 536 1
E 551 536 1
E 551 537 1
E 552 537 1
E 552 538 1
E 553 538 1
E 553 539 1
E 554 539 1
E 554 540 1
E 541 555 1
E 541 556 1
E 541 557 1
E 541 558 1
E 541 559 1
E 541 560 1
E 541 561 1
E 541 562 1
E 541 563 1
E 541 564 1
E 541 565 1
E 541 566 1
E 541 567 1
E 542 555 1
E 542 567 1
E 543 555 1
E 543 556 1
E 544 556 1
E 544 557 1
E 545 557 1
E 545 558 1
E 546 558 1
E 546 559 1
E 547 559 1
E 547 560 1
E 548 560 1
E 548 561 1
E 549 561 1
E 549 562 1
E 550 562 1
E 550 563 1
E 551 563 1
E 551 564 1
E 552 564 1
E 552 565 1
E 553 565 1
E 553 566 1
E 554 566 1
E 554 567 1
E 568 555 1
E 568 556 1
E 568 557 1
E 568 558 1
E 568 559 1
E 568 560 1
E 568 561 1
E 568 562 1
E 568 563 1
E 568 564 1
E 568 565 1
E 568 566 1
E 568 567 1
E 569 555 1
E 569 567 1
E 570 555 1
E 570 556 1
E 571 556 1
E 571 557 1
E 572 557 1
E 572 558 1
E 573 558 1
E 573 559 1
E 574 559 1
E 574 560 1
E 575 560 1
E 575 561 1
E 576 561 1
E 576 562 1
E 577 562 1
E 577 563 1
E 578 563 1
E 578 564 1
E 579 564 1
E 579 565 1
E 580 565 1
E 580 566 1
E 581 566 1
E 581 567 1
E 568 582 1
E 568 583 1
E 568 584 1
E 568 585 1
E 568 586 1
E 568 587 1
E 568 588 1
E 568 589 1
E 568 590 1
E 568 591 1
E 568 592 1
E 568 593 1
E 568 594 1
E 569 582 1
E 569 594 1
E 570 582 1
E 570 583 1
E 571 583 1
E 571 584 1
E 572 584 1
E 572 585 1
E 573 585 1
E 573 586 1
E 574 586 1
E 574 587 1
E 575 587 1
E 575 588 1
E 576 588 1
E 576 589 1
E 577 589 1
E 577 590 1
E 578 590 1
E 578 591 1
E 579 591 1
E 579 592 1
E 580 592 1
E 580 593 1
E 581 593 1
E 581 594 1
E 595 582 1
E 595 583 1
E 595 584 1
E 595 585 1
E 595 586 1
E 595 587 1
E 595 588 1
E 595 589 1
E 595 590 1
E 595 591 1
E 595 592 1
E 595 593 1
E 595 594 1
E 596 582 1
E 596 594 1
E 597 582 1
E 597 583 1
E 598 583 1
E 598 584 1
E 599 584 1
E 599 585 1
E 600 585 1
E 600 586 1
E 601 586 1
E 601 587 1
E 602 587 1
E 602 588 1
E 603 588 1
E 603 589 1
E 604 589 1
E 604 590 1
E 605 590 1
E 605 591 1
E 606 591 1
E 606 592 1
E 607 592 1
E 607 593 1
E 608 593 1
E 608 594 1
E 595 609 1
E 595 610 1
E 595 611 1
E 595 612 1
E 595 613 1
E 595 614 1
E 595 615 1
E 595 616 1
E 595 617 1
E 595 618 1
E 595 619 1
E 595 620 1
E 595 621 1
E 596 609 1
E 596 621 1
E 597 609 1
E 597 610 1
E 598 610 1
E 598 611 1
E 599 611 1
E 599 612 1
E 600 612 1
E 600 613 1
E 601 613 1
E 601 614 1
E 602 614 1
E 602 615 1
E 603 615 1
E 603 616 1
E 604 616 1
E 604 617 1
E 605 617 1
E 605 618 1
E 606 618 1
E 606 619 1
E 607 619 1
E 607 620 1
E 608 620 1
E 608 621 1
E 622 609 1
E 622 610 1
E 622 611 1
E 622 612 1
E 622 613 1
E 622 614 1
E 622 615 1
E 622 616 1
E 622 617 1
E 622 618 1
E 622 619 1
E 622 620 1
E 622 621 1
E 623 609 1
E 623 621 1
E 624 609 1
E 624 610 1
E 625 610 1
E 625 611 1
E 626 611 1
E 626 612 1
E 627 612 1
E 627 613 1
E 628 613 1
E 628 614 1
E 629 614 1
E 629 615 1
E 630 615 1
E 630 616 1
E 631 616 1
E 631 617 1
E 632 617 1
E 632 618 1
E 633 618 1
E 633 619 1
E 634 619 1
E 634 620 1
E 635 620 1
E 635 621 1
E 622 636 1
E 622 637 1
E 622 638 1
E 622 639 1
E 622 640 1
E 622 641 1
E 622 642 1
E 622 643 1
E 622 644 1
E 622 645 1
E 622 646 1
E 622 647 1
E 622 648 1
E 623 636 1
E 623 648 1
E 624 636 1
E 624 637 1
E 625 637 1
E 625 638 1
E 626 638 1
E 626 639 1
E 627 639 1
E 627 640 1
E 628 640 1
E 628 641 1
E 629 641 1
E 629 642 1
E 630 642 1
E 630 643 1
E 631 643 1
E 631 644 1
E 632 644 1
E 632 645 1
E 633 645 1
E 633 646 1
E 634 646 1
E 634 647 1
E 635 647 1
E 635 648 1
E 649 636 1
E 649 637 1
E 649 638 1
E 649 639 1
E 649 640 1
E 649 641 1
E 649 642 1
E 649 643 1
E 649 644 1
E 649 645 1
E 649 646 1
E 649 647 1
E 649 648 1
E 650 636 1
E 650 648 1
E 651 636 1
E 651 637 1
E 652 637 1
E 652 638 1
E 653 638 1
E 653 639 1
E 654 639 1
E 654 640 1
E 655 640 1
E 655 641 1
E 656 641 1
E 656 642 1
E 657 642 1
E 657 643 1
E 658 643 1
E 658 644 1
E 659 644 1
E 659 645 1
E 660 645 1
E 660 646 1
E 661 646 1
E 661 647 1
E 662 647 1
E 662 648 1
E 649 663 1
E 649 664 1
E 649 665 1
E 649 666 1
E 649 667 1
E 649 668 1
E 649 669 1
E 649 670 1
E 649 671 1
E 649 672 1
E 649 673 1
E 649 674 1
E 649 675 1
E 650 663 1
E 650 675 1
E 651 663 1
E 651 664 1
E 652 664 1
E 652 665 1
E 653 665 1
E 653 666 1
E 654 666 1
E 654 667 1
E 655 667 1
E 655 668 1
E 656 668 1
E 656 669 1
E 657 669 1
E 657 670 1
E 658 670 1
E 658 671 1
E 659 671 1
E 659 672 1
E 660 672 1
E 660 673 1
E 661 673 1
E 661 674 1
E 662 674 1
E 662 675 1
E 676 663 1
E 676 664 1
E 676 665 1
E 676 666 1
E 676 667 1
E 676 668 1
E 676 669 1
E 676 670 1
E 676 671 1
E 676 672 1
E 676 673 1
E 676 674 1
E 676 675 1
E 677 663 1
E 677 675 1
E 678 663 1
E 678 664 1
E 679 664 1
E 679 665 1
E 680 665 1
E 680 666 1
E 681 666 1
E 681 667 1
E 682 667 1
E 682 668 1
E 683 668 1
E 683 669 1
E 684 669 1
E 684 670 1
E 685 670 1
E 685 671 1
E 686 671 1
E 686 672 1
E 687 672 1
E 687 673 1
E 688 673 1
E 688 674 1
E 689 674 1
E 689 675 1
E 676 690 1
E 676 691 1
E 676 692 1
E 676 693 1
E 676 694 1
E 676 695 1
E 676 696 1
E 676 697 1
E 676 698 1
E 676 699 1
E 676 700 1
E 676 701 1
E 676 702 1
E 677 690 1
E 677 702 1
E 678 690 1
E 678 691 1
E 679 691 1
E 679 692 1
E 680 692 1
E 680 693 1
E 681 693 1
E 681 694 1
E 682 694 1
E 682 695 1
E 683 695 1
E 683 696 1
E 684 696 1
E 684 697 1
E 685 697 1
E 685 698 1
E 686 698 1
E 686 699 1
E 687 699 1
E 687 700 1
E 688 700 1
E 688 701 1
E 689 701 1
E 689 702 1
E 703 690 1
E 703 691 1
E 703 692 1
E 703 693 1
E 703 694 1
E 703 695 1
E 703 696 1
E 703 697 1
E 703 698 1
E 703 699 1
E 703 700 1
E 703 701 1
E 703 702 1
E 704 690 1
E 704 702 1
E 705 690 1
E 705 691 1
E 706 691 1
E 706 692 1
E 707 692 1
E 707 693 1
E 708 693 1
E 708 694 1
E 709 694 1
E 709 695 1
E 710 695 1
E 710 696 1
E 711 696 1
E 711 697 1
E 712 697 1
E 712 698 1
E 713 698 1
E 713 699 1
E 714 699 1
E 714 700 1
E 715 700 1
E 715 701 1
E 716 701 1
E 716 702 1
E 703 717 1
E 703 718 1
E 703 719 1
E 703 720 1
E 703 721 1
E 703 722 1
E 703 723 1
E 703 724 1
E 703 725 1
E 703 726 1
E 703 727 1
E 703 728 1
E 703 729 1
E 704 717 1
E 704 729 1
E 705 717 1
E 705 718 1
E 706 718 1
E 706 719 1
E 707 719 1
E 707 720 1
E 708 720 1
E 708 721 1
E 709 721 1
E 709 722 1
E 710 722 1
E 710 723 1
E 711 723 1
E 711 724 1
E 712 724 1
E 712 725 1
E 713 725 1
E 713 726 1
E 714 726 1
E 714 727 1
E 715 727 1
E 715 728 1
E 716 728 1
E 716 729 1
E 730 717 1
E 730 718 1
E 730 719 1
E 730 720 1
E 730 721 1
E 730 722 1
E 730 723 1
E 730 724 1
E 730 725 1
E 730 726 1
E 730 727 1
E 730 728 1
E 730 729 1
E 731 717 1
E 731 729 1
E 732 717 1
E 732 718 1
E 733 718 1
E 733 719 1
E 734 719 1
E 734 720 1
E 735 720 1
E 735 721 1
E 736 721 1
E 736 722 1
E 737 722 1
E 737 723 1
E 738 723 1
E 738 724 1
E 739 724 1
E 739 725 1
E 740 725 1
E 740 726 1
E 741 726 1
E 741 727 1
E 742 727 1
E 742 728 1
E 743 728 1
E 743 729 1
E 730 744 1
E 730 745 1
E 730 746 1
E 730 747 1
E 730 748 1
E 730 749 1
E 730 750 1
E 730 751 1
E 730 752 1
E 730 753 1
E 730 754 1
E 730 755 1
E 730 756 1
E 731 744 1
E 731 756 1
E 732 744 1
E 732 745 1
E 733 745 1
E 733 746 1
E 734 746 1
E 734 747 1
E 735 747 1
E 735 748 1
E 736 748 1
E 736 749 1
E 737 749 1
E 737 750 1
E 738 750 1
E 738 751 1
E 739 751 1
E 739 752 1
E 740 752 1
E 740 753 1
E 741 753 1
E 741 754 1
E 742 754 1
E 742 755 1
E 743 755 1
E 743 756 1
E 757 744 1
E 757 745 1
E 757 746 1
E 757 747 1
E 757 748 1
E 757 749 1
E 757 750 1
E 757 751 1
E 757 752 1
E 757 753 1
E 757 754 1
E 757 755 1
E 757 756 1
E 758 744 1
E 758 756 1
E 759 744 1
E 759 745 1
E 760 745 1
E 760 746 1
E 761 746 1
E 761 747 1
E 762 747 1
E 762 748 1
E 763 748 1
E 763 749 1
E 764 749 1
E 764 750 1
E 765 750 1
E 765 751 1
E 766 751 1
E 766 752 1
E 767 752 1
E 767 753 1
E 768 753 1
E 768 754 1
E 769 754 1
E 769 755 1
E 770 755 1
E 770 756 1
E 757 771 1
E 757 772 1
E 757 773 1
E 757 774 1
E 757 775 1
E 757 776 1
E 757 777 1
E 757 778 1
E 757 779 1
E 757 780 1
E 757 781 1
E 757 782 1
E 757 783 1
E 758 771 1
E 758 783 1
E 759 771 1
E 759 772 1
E 760 772 1
E 760 773 1
E 761 773 1
E 761 774 1
E 762 774 1
E 762 775 1
E 763 775 1
E 763 776 1
E 764 776 1
E 764 777 1
E 765 777 1
E 765 778 1
E 766 778 1
E 766 779 1
E 767 779 1
E 767 780 1
E 768 780 1
E 768 781 1
E 769 781 1
E 769 782 1
E 770 782 1
E 770 783 1
E 1 771 1
E 1 772 1
E 1 773 1
E 1 774 1
E 1 775 1
E 1 776 1
E 1 777 1
E 1 778 1
E 1 779 1
E 1 780 1
E 1 781 1
E 1 782 1
E 1 783 1
E 2 771 1
E 2 783 1
E 3 771 1
E 3 772 1
E 4 772 1
E 4 773 1
E 5 773 1
E 5 774 1
E 6 774 1
E 6 775 1
E 7 775 1
E 7 776 1
E 8 776 1
E 8 777 1
E 9 777 1
E 9 778 1
E 10 778 1
E 10 779 1
E 11 779 1
E 11 780 1
E 12 780 1
E 12 781 1
E 13 781 1
E 13 782 1
E 14 782 1
E 14 783 1
END

SECTION Terminals
Terminals 406
T 1
T 2
T 3
T 4
T 5
T 6
T 7
T 8
T 9
T 10
T 11
T 12
T 13
T 14
T 28
T 29
T 30
T 31
T 32
T 33
T 34
T 35
T 36
T 37
T 38
T 39
T 40
T 41
T 55
T 56
T 57
T 58
T 59
T 60
T 61
T 62
T 63
T 64
T 65
T 66
T 67
T 68
T 82
T 83
T 84
T 85
T 86
T 87
T 88
T 89
T 90
T 91
T 92
T 93
T 94
T 95
T 109
T 110
T 111
T 112
T 113
T 114
T 115
T 116
T 117
T 118
T 119
T 120
T 121
T 122
T 136
T 137
T 138
T 139
T 140
T 141
T 142
T 143
T 144
T 145
T 146
T 147
T 148
T 149
T 163
T 164
T 165
T 166
T 167
T 168
T 169
T 170
T 171
T 172
T 173
T 174
T 175
T 176
T 190
T 191
T 192
T 193
T 194
T 195
T 196
T 197
T 198
T 199
T 200
T 201
T 202
T 203
T 217
T 218
T 219
T 220
T 221
T 222
T 223
T 224
T 225
T 226
T 227
T 228
T 229
T 230
T 244
T 245
T 246
T 247
T 248
T 249
T 250
T 251
T 252
T 253
T 254
T 255
T 256
T 257
T 271
T 272
T 273
T 274
T 275
T 276
T 277
T 278
T 279
T 280
T 281
T 282
T 283
T 284
T 298
T 299
T 300
T 301
T 302
T 303
T 304
T 305
T 306
T 307
T 308
T 309
T 310
T 311
T 325
T 326
T 327
T 328
T 329
T 330
T 331
T 332
T 333
T 334
T 335
T 336
T 337
T 338
T 352
T 353
T 354
T 355
T 356
T 357
T 358
T 359
T 360
T 361
T 362
T 363
T 364
T 365
T 379
T 380
T 381
T 382
T 383
T 384
T 385
T 386
T 387
T 388
T 389
T 390
T 391
T 392
T 406
T 407
T 408
T 409
T 410
T 411
T 412
T 413
T 414
T 415
T 416
T 417
T 418
T 419
T 433
T 434
T 435
T 436
T 437
T 438
T 439
T 440
T 441
T 442
T 443
T 444
T 445
T 446
T 460
T 461
T 462
T 463
T 464
T 465
T 466
T 467
T 468
T 469
T 470
T 471
T 472
T 473
T 487
T 488
T 489
T 490
T 491
T 492
T 493
T 494
T 495
T 496
T 497
T 498
T 499
T 500
T 514
T 515
T 516
T 517
T 518
T 519
T 520
T 521
T 522
T 523
T 524
T 525
T 526
T 527
T 541
T 542
T 543
T 544
T 545
T 546
T 547
T 548
T 549
T 550
T 551
T 552
T 553
T 554
T 568
T 569
T 570
T 571
T 572
T 573
T 574
T 575
T 576
T 577
T 578
T 579
T 580
T 581
T 595
T 596
T 597
T 598
T 599
T 600
T 601
T 602
T 603
T 604
T 605
T 606
T 607
T 608
T 622
T 623
T 624
T 625
T 626
T 627
T 628
T 629
T 630
T 631
T 632
T 633
T 634
T 635
T 649
T 650
T 651
T 652
T 653
T 654
T 655
T 656
T 657
T 658
T 659
T 660
T 661
T 662
T 676
T 677
T 678
T 679
T 680
T 681
T 682
T 683
T 684
T 685
T 686
T 687
T 688
T 689
T 703
T 704
T 705
T 706
T 707
T 708
T 709
T 710
T 711
T 712
T 713
T 714
T 715
T 716
T 730
T 731
T 732
T 733
T 734
T 735
T 736
T 737
T 738
T 739
T 740
T 741
T 742
T 743
T 757
T 758
T 759
T 760
T 761
T 762
T 763
T 764
T 765
T 766
T 767
T 768
T 769
T 770
END

EOF
